backend/data/formal_work/smoke_multi_assert__01_assert_p1/smoke_multi_assert__01_assert_p1_bmc/model/design_smt2.smt2
; SMT-LIBv2 description generated by Yosys 0.63+184 (git sha1 240439bdb-dirty, aarch64-apple-darwin23.5-clang++ 18.1.8 -fPIC -O3)
; yosys-smt2-module mini_checker
(declare-sort |mini_checker_s| 0)
(declare-fun |mini_checker_is| (|mini_checker_s|) Bool)
; yosys-smt2-witness {"offset": 0, "path": ["$auto$async2sync.cc:116:execute$23"], "smtname": 0, "smtoffset": 0, "type": "reg", "width": 1}
(declare-fun |mini_checker#0| (|mini_checker_s|) (_ BitVec 1)) ; $auto$async2sync.cc:116:execute$23
; yosys-smt2-register $auto$async2sync.cc:116:execute$23 1
(define-fun |mini_checker_n $auto$async2sync.cc:116:execute$23| ((state |mini_checker_s|)) Bool (= ((_ extract 0 0) (|mini_checker#0| state)) #b1))
; yosys-smt2-witness {"offset": 0, "path": ["$auto$async2sync.cc:107:execute$19"], "smtname": 1, "smtoffset": 0, "type": "reg", "width": 1}
(declare-fun |mini_checker#1| (|mini_checker_s|) (_ BitVec 1)) ; $auto$async2sync.cc:107:execute$19
; yosys-smt2-register $auto$async2sync.cc:107:execute$19 1
(define-fun |mini_checker_n $auto$async2sync.cc:107:execute$19| ((state |mini_checker_s|)) Bool (= ((_ extract 0 0) (|mini_checker#1| state)) #b1))
(declare-fun |mini_checker#2| (|mini_checker_s|) Bool) ; \a
; yosys-smt2-input a 1
; yosys-smt2-wire a 1
; yosys-smt2-witness {"offset": 0, "path": ["\\a"], "smtname": "a", "smtoffset": 0, "type": "input", "width": 1}
(define-fun |mini_checker_n a| ((state |mini_checker_s|)) Bool (|mini_checker#2| state))
(declare-fun |mini_checker#3| (|mini_checker_s|) Bool) ; \b
(define-fun |mini_checker#4| ((state |mini_checker_s|)) Bool (not (or  (|mini_checker#3| state) false))) ; $logic_not$smoke_multi_assert__01_assert_p1_monitor.sv:13$4_Y
(define-fun |mini_checker#5| ((state |mini_checker_s|)) Bool (and (or  (|mini_checker#2| state) false) (or  (|mini_checker#4| state) false))) ; $logic_and$smoke_multi_assert__01_assert_p1_monitor.sv:13$5_Y
(define-fun |mini_checker#6| ((state |mini_checker_s|)) (_ BitVec 1) (ite (|mini_checker#5| state) #b1 #b0)) ; $procmux$15_Y
(declare-fun |mini_checker#7| (|mini_checker_s|) (_ BitVec 1)) ; \rst_n
(define-fun |mini_checker#8| ((state |mini_checker_s|)) (_ BitVec 1) (ite (= ((_ extract 0 0) (|mini_checker#7| state)) #b1) (|mini_checker#6| state) #b0)) ; \assert_p1_EN
; yosys-smt2-wire assert_p1_EN 1
(define-fun |mini_checker_n assert_p1_EN| ((state |mini_checker_s|)) Bool (= ((_ extract 0 0) (|mini_checker#8| state)) #b1))
; yosys-smt2-input b 1
; yosys-smt2-wire b 1
; yosys-smt2-witness {"offset": 0, "path": ["\\b"], "smtname": "b", "smtoffset": 0, "type": "input", "width": 1}
(define-fun |mini_checker_n b| ((state |mini_checker_s|)) Bool (|mini_checker#3| state))
(declare-fun |mini_checker#9| (|mini_checker_s|) Bool) ; \clk
; yosys-smt2-input clk 1
; yosys-smt2-wire clk 1
; yosys-smt2-clock clk posedge
; yosys-smt2-witness {"offset": 0, "path": ["\\clk"], "smtname": "clk", "smtoffset": 0, "type": "posedge", "width": 1}
; yosys-smt2-witness {"offset": 0, "path": ["\\clk"], "smtname": "clk", "smtoffset": 0, "type": "input", "width": 1}
(define-fun |mini_checker_n clk| ((state |mini_checker_s|)) Bool (|mini_checker#9| state))
; yosys-smt2-input rst_n 1
; yosys-smt2-wire rst_n 1
; yosys-smt2-witness {"offset": 0, "path": ["\\rst_n"], "smtname": "rst_n", "smtoffset": 0, "type": "input", "width": 1}
(define-fun |mini_checker_n rst_n| ((state |mini_checker_s|)) Bool (= ((_ extract 0 0) (|mini_checker#7| state)) #b1))
(define-fun |mini_checker#10| ((state |mini_checker_s|)) (_ BitVec 1) (bvnot (ite (|mini_checker#9| state) #b1 #b0))) ; $auto$rtlil.cc:3255:Not$33
; yosys-smt2-assume 0 $auto$formalff.cc:987:execute$34
(define-fun |mini_checker_u 0| ((state |mini_checker_s|)) Bool (or (= ((_ extract 0 0) (|mini_checker#10| state)) #b1) (not true))) ; $auto$formalff.cc:987:execute$34
; yosys-smt2-assert 0 assert_p1
(define-fun |mini_checker_a 0| ((state |mini_checker_s|)) Bool (or (= ((_ extract 0 0) (|mini_checker#0| state)) #b1) (not (= ((_ extract 0 0) (|mini_checker#1| state)) #b1)))) ; assert_p1
(define-fun |mini_checker_a| ((state |mini_checker_s|)) Bool 
  (|mini_checker_a 0| state)
)
(define-fun |mini_checker_u| ((state |mini_checker_s|)) Bool 
  (|mini_checker_u 0| state)
)
(define-fun |mini_checker_i| ((state |mini_checker_s|)) Bool (and
  (= (= ((_ extract 0 0) (|mini_checker#0| state)) #b1) true) ; $auto$async2sync.cc:116:execute$23
  (= (= ((_ extract 0 0) (|mini_checker#1| state)) #b1) false) ; $auto$async2sync.cc:107:execute$19
))
(define-fun |mini_checker_h| ((state |mini_checker_s|)) Bool true)
(define-fun |mini_checker_t| ((state |mini_checker_s|) (next_state |mini_checker_s|)) Bool (and
  (= (|mini_checker#8| state) (|mini_checker#1| next_state)) ; $auto$async2sync.cc:110:execute$21 $auto$async2sync.cc:107:execute$19
  (= #b0 (|mini_checker#0| next_state)) ; $auto$async2sync.cc:118:execute$24 $auto$async2sync.cc:116:execute$23
)) ; end of module mini_checker
; yosys-smt2-topmod mini_checker
; end of yosys output
